p cnf 21 162
c at least one value
1 2 3 4 0
5 6 7 8 0
9 10 11 12 0
13 14 15 0
16 17 18 0
19 20 21 0
c at most one value
-1 -2 0
-1 -3 0
-1 -4 0
-2 -3 0
-2 -4 0
-3 -4 0
-5 -6 0
-5 -7 0
-5 -8 0
-6 -7 0
-6 -8 0
-7 -8 0
-9 -10 0
-9 -11 0
-9 -12 0
-10 -11 0
-10 -12 0
-11 -12 0
-13 -14 0
-13 -15 0
-14 -15 0
-16 -17 0
-16 -18 0
-17 -18 0
-19 -20 0
-19 -21 0
-20 -21 0
c graceful clauses
-1 -5 -13 0
-1 -5 -14 0
-1 -5 -15 0
-1 -6 -14 0
-1 -6 -15 0
-1 -7 -13 0
-1 -7 -15 0
-1 -8 -13 0
-1 -8 -14 0
-2 -5 -14 0
-2 -5 -15 0
-2 -6 -13 0
-2 -6 -14 0
-2 -6 -15 0
-2 -7 -14 0
-2 -7 -15 0
-2 -8 -13 0
-2 -8 -15 0
-3 -5 -13 0
-3 -5 -15 0
-3 -6 -14 0
-3 -6 -15 0
-3 -7 -13 0
-3 -7 -14 0
-3 -7 -15 0
-3 -8 -14 0
-3 -8 -15 0
-4 -5 -13 0
-4 -5 -14 0
-4 -6 -13 0
-4 -6 -15 0
-4 -7 -14 0
-4 -7 -15 0
-4 -8 -13 0
-4 -8 -14 0
-4 -8 -15 0
-1 -9 -16 0
-1 -9 -17 0
-1 -9 -18 0
-1 -10 -17 0
-1 -10 -18 0
-1 -11 -16 0
-1 -11 -18 0
-1 -12 -16 0
-1 -12 -17 0
-2 -9 -17 0
-2 -9 -18 0
-2 -10 -16 0
-2 -10 -17 0
-2 -10 -18 0
-2 -11 -17 0
-2 -11 -18 0
-2 -12 -16 0
-2 -12 -18 0
-3 -9 -16 0
-3 -9 -18 0
-3 -10 -17 0
-3 -10 -18 0
-3 -11 -16 0
-3 -11 -17 0
-3 -11 -18 0
-3 -12 -17 0
-3 -12 -18 0
-4 -9 -16 0
-4 -9 -17 0
-4 -10 -16 0
-4 -10 -18 0
-4 -11 -17 0
-4 -11 -18 0
-4 -12 -16 0
-4 -12 -17 0
-4 -12 -18 0
-5 -9 -19 0
-5 -9 -20 0
-5 -9 -21 0
-5 -10 -20 0
-5 -10 -21 0
-5 -11 -19 0
-5 -11 -21 0
-5 -12 -19 0
-5 -12 -20 0
-6 -9 -20 0
-6 -9 -21 0
-6 -10 -19 0
-6 -10 -20 0
-6 -10 -21 0
-6 -11 -20 0
-6 -11 -21 0
-6 -12 -19 0
-6 -12 -21 0
-7 -9 -19 0
-7 -9 -21 0
-7 -10 -20 0
-7 -10 -21 0
-7 -11 -19 0
-7 -11 -20 0
-7 -11 -21 0
-7 -12 -20 0
-7 -12 -21 0
-8 -9 -19 0
-8 -9 -20 0
-8 -10 -19 0
-8 -10 -21 0
-8 -11 -20 0
-8 -11 -21 0
-8 -12 -19 0
-8 -12 -20 0
-8 -12 -21 0
c create alldiff
-1 -5 0
-2 -6 0
-3 -7 0
-4 -8 0
-1 -9 0
-2 -10 0
-3 -11 0
-4 -12 0
-5 -9 0
-6 -10 0
-7 -11 0
-8 -12 0
c create alldiff
-13 -16 0
-14 -17 0
-15 -18 0
-13 -19 0
-14 -20 0
-15 -21 0
-16 -19 0
-17 -20 0
-18 -21 0
